<number of tasks>
25

<cycle time>
32

<task times>
1 4
2 3
3 9
4 5
5 9
6 4
7 8
8 7
9 5
10 1
11 3
12 1
13 5
14 3
15 5
16 3
17 13
18 5
19 2
20 3
21 7
22 5
23 3
24 8
25 4

<task process alternatives>
1: 4,15 ; 5,8
2: 3,15 ; 4,8
3: 8,15 ; 11,8
4: 4,15 ; 6,8
5: 8,15 ; 11,8
6: 4,15 ; 5,8
7: 7,15 ; 10,8
8: 6,15 ; 9,8
9: 4,15 ; 6,8
10: 1,15 ; 2,8
11: 3,15 ; 4,8
12: 1,15 ; 2,8
13: 4,15 ; 6,8
14: 3,15 ; 4,8
15: 4,15 ; 6,8
16: 3,15 ; 4,8
17: 11,15 ; 16,8
18: 4,15 ; 6,8
19: 2,15 ; 3,8
20: 3,15 ; 4,8
21: 6,15 ; 9,8
22: 4,15 ; 6,8
23: 3,15 ; 4,8
24: 7,15 ; 10,8
25: 4,15 ; 5,8

<incompatible tasks>
3,24
2,21
9,22

<precedence relations>
3,4
21,22
14,16
14,19
8,9
23,25
17,18
1,3
13,14
15,17
4,5
5,6
4,8
12,15
18,25
20,25
21,24
8,11
9,10
17,23
9,13
11,13
6,7
7,12
6,10
16,18
15,22
20,21
14,20
2,3
19,22
7,11

<number of task attributes>
3

<task attribute values>
1,1:70
1,2:42
1,3:3
2,1:6
2,2:6
2,3:20
3,2:38
3,3:70
4,1:16
4,2:11
4,3:4
5,1:7
5,2:2
6,1:81
6,2:99
6,3:43
7,1:1
7,3:51
8,1:14
8,3:3
9,1:1
9,3:2
10,1:92
10,2:94
10,3:60
11,1:2
12,1:2
12,2:1
12,3:13
14,2:2
14,3:20
15,1:5
15,2:2
16,3:2
18,1:97
18,2:72
18,3:13
19,3:1
20,3:2
21,3:56
22,2:5
22,3:14
23,2:13
23,3:1
24,1:2
24,3:5
25,2:6
25,3:9

<attribute bounds per station>
1:100
2:100
3:100

<incompatible tasks>
1,9
1,18
2,6
3,18
4,23
4,24
5,8
5,21
5,25
6,23
6,24
7,21
7,25
8,15
8,16
9,21
9,22
11,14
12,13
13,15
15,25
16,25
17,22
17,23
19,25

<optimal SALBP-1 value>
4

<rand seed>
236278236

<end>
